row=9;
column=9;

Board=[|6,0,1,0,8,0,2,0,9|0,3,4,0,0,0,0,5,6|9,0,2,6,0,1,4,0,0|4,0,6,3,0,5,0,0,2|2,0,3,0,4,6,9,1,0|7,1,0,9,0,8,6,4,0|0,6,0,5,0,7,0,2,4|3,2,8,0,0,0,5,0,0|0,4,0,8,0,0,0,0,1|];
OE=[|0,1,1,0,0,1,0,1,1|0,1,0,0,1,1,1,1,0|1,1,0,0,1,1,0,1,0|0,1,0,1,1,1,1,0,0|0,0,1,1,0,0,1,1,1|1,1,1,1,0,0,0,0,1|1,0,1,1,1,1,0,0,0|1,0,0,1,0,0,1,1,1|1,0,1,0,1,0,1,0,1|];
